%SETS
JOBS     = 1..100;
MACHINES = 1..5;
SPEED    = 5;

time        = array3d(JOBS,MACHINES,1..SPEED,[26, 9, 6, 5, 4, 14, 5, 3, 3, 2, 57, 19, 14, 11, 10, 85, 29, 21, 17, 15, 12, 4, 3, 2, 2, 40, 14, 9, 8, 7, 19, 6, 4, 3, 3, 21, 7, 5, 4, 3, 67, 23, 16, 13, 12, 1, 1, 1, 1, 1, 2, 1, 1, 1, 1, 1, 1, 1, 1, 1, 46, 15, 11, 9, 8, 38, 13, 9, 7, 7, 52, 18, 12, 10, 9, 99, 34, 24, 20, 17, 41, 14, 10, 8, 7, 16, 5, 3, 3, 2, 39, 13, 9, 7, 7, 3, 1, 1, 1, 1, 26, 9, 6, 5, 4, 4, 1, 1, 1, 1, 74, 25, 18, 15, 13, 19, 6, 4, 3, 3, 13, 4, 3, 2, 2, 7, 2, 1, 1, 1, 38, 13, 9, 7, 6, 15, 5, 3, 3, 2, 21, 7, 5, 4, 3, 1, 1, 1, 1, 1, 24, 8, 6, 5, 4, 24, 8, 6, 4, 4, 24, 8, 6, 5, 4, 74, 25, 18, 15, 13, 29, 10, 7, 6, 5, 11, 3, 2, 2, 2, 14, 5, 3, 3, 2, 30, 10, 7, 6, 5, 1, 1, 1, 1, 1, 28, 9, 6, 5, 5, 28, 9, 7, 5, 5, 6, 2, 1, 1, 1, 3, 1, 1, 1, 1, 9, 3, 2, 1, 1, 11, 4, 2, 2, 2, 21, 7, 5, 4, 3, 14, 5, 3, 3, 2, 115, 39, 28, 23, 20, 2, 1, 1, 1, 1, 6, 2, 1, 1, 1, 4, 1, 1, 1, 1, 27, 9, 6, 5, 4, 7, 2, 1, 1, 1, 16, 5, 3, 3, 2, 7, 2, 1, 1, 1, 4, 1, 1, 1, 1, 3, 1, 1, 1, 1, 27, 9, 6, 5, 4, 3, 1, 1, 1, 1, 5, 1, 1, 1, 1, 11, 4, 2, 2, 2, 44, 15, 10, 9, 8, 2, 1, 1, 1, 1, 47, 16, 11, 9, 8, 2, 1, 1, 1, 1, 97, 33, 23, 19, 17, 16, 5, 4, 3, 2, 97, 33, 23, 19, 17, 24, 8, 5, 4, 4, 34, 12, 8, 7, 6, 1, 1, 1, 1, 1, 8, 2, 2, 1, 1, 3, 1, 1, 1, 1, 9, 3, 2, 1, 1, 3, 1, 1, 1, 1, 9, 3, 2, 2, 1, 13, 4, 3, 2, 2, 1, 1, 1, 1, 1, 30, 10, 7, 6, 5, 21, 7, 5, 4, 3, 7, 2, 1, 1, 1, 19, 6, 4, 3, 3, 2, 1, 1, 1, 1, 22, 7, 5, 4, 3, 68, 23, 16, 13, 12, 9, 3, 2, 2, 1, 28, 9, 6, 5, 5, 3, 1, 1, 1, 1, 32, 11, 7, 6, 5, 8, 3, 2, 1, 1, 5, 1, 1, 1, 1, 22, 7, 5, 4, 4, 1, 1, 1, 1, 1, 45, 15, 11, 9, 8, 1, 1, 1, 1, 1, 29, 10, 7, 5, 5, 8, 2, 1, 1, 1, 34, 11, 8, 6, 6, 84, 29, 20, 17, 15, 7, 2, 1, 1, 1, 22, 7, 5, 4, 3, 23, 8, 5, 4, 4, 21, 7, 5, 4, 3, 6, 2, 1, 1, 1, 78, 27, 19, 16, 14, 15, 5, 3, 3, 2, 48, 16, 11, 9, 8, 31, 10, 7, 6, 5, 9, 3, 2, 1, 1, 43, 15, 10, 8, 7, 13, 4, 3, 2, 2, 55, 19, 13, 11, 9, 22, 7, 5, 4, 4, 55, 19, 13, 11, 9, 30, 10, 7, 6, 5, 33, 11, 8, 6, 6, 18, 6, 4, 3, 3, 80, 27, 19, 16, 14, 26, 9, 6, 5, 4, 14, 4, 3, 2, 2, 24, 8, 5, 4, 4, 1, 1, 1, 1, 1, 9, 3, 2, 1, 1, 27, 9, 6, 5, 5, 8, 3, 2, 1, 1, 24, 8, 6, 5, 4, 14, 5, 3, 2, 2, 3, 1, 1, 1, 1, 9, 3, 2, 1, 1, 21, 7, 5, 4, 3, 23, 7, 5, 4, 4, 22, 7, 5, 4, 3, 27, 9, 6, 5, 4, 27, 9, 6, 5, 4, 14, 5, 3, 2, 2, 58, 20, 14, 11, 10, 11, 4, 2, 2, 2, 14, 5, 3, 3, 2, 57, 19, 14, 11, 10, 42, 14, 10, 8, 7, 31, 10, 7, 6, 5, 2, 1, 1, 1, 1, 65, 22, 15, 13, 11, 32, 11, 7, 6, 5, 175, 60, 42, 35, 31, 4, 1, 1, 1, 1, 52, 18, 12, 10, 9, 4, 1, 1, 1, 1, 24, 8, 6, 5, 4, 3, 1, 1, 1, 1, 48, 16, 11, 9, 8, 42, 14, 10, 8, 7, 21, 7, 5, 4, 3, 13, 4, 3, 2, 2, 1, 1, 1, 1, 1, 30, 10, 7, 6, 5, 15, 5, 3, 3, 2, 33, 11, 8, 6, 5, 52, 17, 12, 10, 9, 96, 33, 23, 19, 17, 50, 17, 12, 10, 9, 1, 1, 1, 1, 1, 11, 3, 2, 2, 2, 33, 11, 8, 6, 6, 4, 1, 1, 1, 1, 19, 6, 4, 3, 3, 1, 1, 1, 1, 1, 5, 1, 1, 1, 1, 1, 1, 1, 1, 1, 40, 14, 10, 8, 7, 6, 2, 1, 1, 1, 10, 3, 2, 2, 1, 68, 23, 16, 13, 12, 31, 10, 7, 6, 5, 1, 1, 1, 1, 1, 4, 1, 1, 1, 1, 25, 8, 6, 5, 4, 22, 7, 5, 4, 4, 7, 2, 1, 1, 1, 70, 24, 17, 14, 12, 24, 8, 6, 5, 4, 19, 6, 4, 4, 3, 23, 7, 5, 4, 4, 33, 11, 8, 6, 6, 9, 3, 2, 1, 1, 13, 4, 3, 2, 2, 6, 2, 1, 1, 1, 5, 1, 1, 1, 1, 74, 25, 18, 15, 13, 34, 12, 8, 7, 6, 17, 6, 4, 3, 3, 6, 2, 1, 1, 1, 7, 2, 1, 1, 1, 1, 1, 1, 1, 1, 14, 5, 3, 2, 2, 9, 3, 2, 1, 1, 30, 10, 7, 6, 5, 12, 4, 3, 2, 2, 5, 1, 1, 1, 1, 1, 1, 1, 1, 1, 1, 1, 1, 1, 1, 29, 10, 7, 5, 5, 15, 5, 3, 3, 2, 19, 6, 4, 4, 3, 58, 20, 14, 11, 10, 120, 41, 29, 24, 21, 6, 2, 1, 1, 1, 28, 9, 6, 5, 5, 7, 2, 1, 1, 1, 1, 1, 1, 1, 1, 36, 12, 9, 7, 6, 9, 3, 2, 2, 1, 12, 4, 3, 2, 2, 22, 7, 5, 4, 4, 46, 15, 11, 9, 8, 25, 8, 6, 5, 4, 53, 18, 13, 10, 9, 8, 2, 2, 1, 1, 41, 14, 10, 8, 7, 5, 1, 1, 1, 1, 79, 27, 19, 16, 14, 30, 10, 7, 6, 5, 6, 2, 1, 1, 1, 76, 26, 18, 15, 13, 33, 11, 8, 6, 6, 7, 2, 1, 1, 1, 6, 2, 1, 1, 1, 18, 6, 4, 3, 3, 1, 1, 1, 1, 1, 6, 2, 1, 1, 1, 14, 4, 3, 2, 2, 12, 4, 2, 2, 2, 16, 5, 3, 3, 2, 8, 2, 2, 1, 1, 22, 7, 5, 4, 4, 51, 17, 12, 10, 9, 3, 1, 1, 1, 1, 18, 6, 4, 3, 3, 3, 1, 1, 1, 1, 32, 11, 7, 6, 5, 13, 4, 3, 2, 2, 21, 7, 5, 4, 3, 5, 1, 1, 1, 1, 4, 1, 1, 1, 1, 17, 5, 4, 3, 3, 11, 3, 2, 2, 2, 72, 25, 17, 14, 13, 37, 12, 9, 7, 6, 35, 12, 8, 7, 6, 60, 20, 14, 12, 10, 2, 1, 1, 1, 1, 20, 7, 5, 4, 3, 22, 7, 5, 4, 4, 84, 29, 20, 17, 15, 8, 3, 2, 1, 1, 7, 2, 1, 1, 1, 2, 1, 1, 1, 1, 1, 1, 1, 1, 1, 68, 23, 16, 13, 12, 28, 9, 7, 5, 5, 39, 13, 9, 8, 7, 8, 2, 2, 1, 1, 22, 7, 5, 4, 4, 1, 1, 1, 1, 1, 17, 5, 4, 3, 3, 98, 33, 24, 19, 17, 54, 18, 13, 11, 9, 10, 3, 2, 2, 1, 84, 29, 20, 17, 15, 6, 2, 1, 1, 1, 77, 26, 18, 15, 13, 73, 25, 17, 14, 13, 41, 14, 10, 8, 7, 25, 8, 6, 5, 4, 53, 18, 13, 10, 9, 8, 3, 2, 1, 1, 48, 16, 11, 9, 8, 24, 8, 6, 5, 4, 1, 1, 1, 1, 1, 11, 3, 2, 2, 1, 4, 1, 1, 1, 1, 103, 35, 25, 21, 18, 16, 5, 4, 3, 3, 17, 6, 4, 3, 3, 26, 9, 6, 5, 4, 11, 4, 2, 2, 2, 3, 1, 1, 1, 1, 44, 15, 10, 9, 8, 5, 1, 1, 1, 1, 18, 6, 4, 3, 3, 6, 2, 1, 1, 1, 2, 1, 1, 1, 1, 51, 17, 12, 10, 9, 93, 32, 22, 18, 16, 83, 28, 20, 17, 15, 61, 21, 15, 12, 11, 38, 13, 9, 7, 6, 10, 3, 2, 2, 1, 2, 1, 1, 1, 1, 13, 4, 3, 2, 2, 6, 2, 1, 1, 1, 3, 1, 1, 1, 1, 1, 1, 1, 1, 1, 33, 11, 8, 6, 6, 1, 1, 1, 1, 1, 38, 13, 9, 7, 6, 4, 1, 1, 1, 1, 2, 1, 1, 1, 1, 2, 1, 1, 1, 1, 28, 9, 7, 5, 5, 7, 2, 1, 1, 1, 14, 4, 3, 2, 2, 21, 7, 5, 4, 3, 50, 17, 12, 10, 9, 33, 11, 8, 6, 6, 8, 2, 1, 1, 1, 3, 1, 1, 1, 1, 1, 1, 1, 1, 1, 9, 3, 2, 1, 1, 7, 2, 1, 1, 1, 15, 5, 3, 3, 2, 29, 10, 7, 6, 5, 30, 10, 7, 6, 5, 8, 2, 2, 1, 1, 12, 4, 3, 2, 2, 5, 1, 1, 1, 1, 40, 13, 9, 8, 7, 1, 1, 1, 1, 1, 30, 10, 7, 6, 5, 39, 13, 9, 7, 7, 38, 13, 9, 7, 6, 7, 2, 1, 1, 1, 12, 4, 2, 2, 2, 22, 7, 5, 4, 4, 8, 2, 2, 1, 1, 11, 4, 2, 2, 2, 5, 1, 1, 1, 1, 15, 5, 3, 3, 2, 1, 1, 1, 1, 1, 41, 14, 10, 8, 7, 2, 1, 1, 1, 1, 18, 6, 4, 3, 3, 9, 3, 2, 1, 1, 22, 7, 5, 4, 4, 82, 28, 20, 16, 14, 26, 9, 6, 5, 4, 1, 1, 1, 1, 1, 14, 5, 3, 2, 2, 18, 6, 4, 3, 3, 19, 6, 4, 4, 3, 29, 10, 7, 6, 5, 8, 2, 2, 1, 1, 3, 1, 1, 1, 1, 12, 4, 3, 2, 2, 81, 27, 19, 16, 14, 5, 1, 1, 1, 1, 60, 20, 14, 12, 10, 20, 7, 4, 4, 3, 15, 5, 3, 3, 2, 55, 19, 13, 11, 9, 15, 5, 3, 3, 2, 33, 11, 8, 6, 5, 13, 4, 3, 2, 2, 60, 20, 14, 12, 10, 30, 10, 7, 6, 5, 31, 10, 7, 6, 5, 10, 3, 2, 2, 1, 36, 12, 8, 7, 6, 26, 9, 6, 5, 4, 7, 2, 1, 1, 1, 4, 1, 1, 1, 1, 41, 14, 10, 8, 7, 82, 28, 20, 16, 14, 15, 5, 3, 3, 2, 23, 7, 5, 4, 4, 50, 17, 12, 10, 9, 15, 5, 3, 3, 2, 78, 27, 19, 15, 14, 22, 7, 5, 4, 3, 44, 15, 10, 9, 8, 61, 21, 15, 12, 11, 43, 15, 10, 8, 7, 4, 1, 1, 1, 1, 25, 8, 6, 5, 4, 13, 4, 3, 2, 2, 1, 1, 1, 1, 1, 14, 4, 3, 2, 2, 7, 2, 1, 1, 1, 48, 16, 11, 9, 8, 1, 1, 1, 1, 1, 82, 28, 20, 16, 14, 11, 3, 2, 2, 2, 11, 3, 2, 2, 2, 1, 1, 1, 1, 1, 5, 1, 1, 1, 1, 13, 4, 3, 2, 2, 68, 23, 16, 13, 12, 2, 1, 1, 1, 1, 75, 25, 18, 15, 13, 52, 18, 12, 10, 9, 15, 5, 3, 3, 2, 10, 3, 2, 2, 1, 6, 2, 1, 1, 1, 24, 8, 6, 5, 4, 1, 1, 1, 1, 1, 1, 1, 1, 1, 1, 14, 5, 3, 2, 2, 1, 1, 1, 1, 1, 7, 2, 1, 1, 1, 6, 2, 1, 1, 1, 7, 2, 1, 1, 1, 3, 1, 1, 1, 1, 1, 1, 1, 1, 1, 3, 1, 1, 1, 1, 24, 8, 6, 5, 4, 94, 32, 23, 19, 17, 120, 41, 29, 24, 21, 13, 4, 3, 2, 2, 4, 1, 1, 1, 1, 26, 9, 6, 5, 4, 17, 6, 4, 3, 3, 117, 40, 28, 23, 21, 1, 1, 1, 1, 1, 39, 13, 9, 8, 7, 8, 3, 2, 1, 1, 7, 2, 1, 1, 1, 28, 9, 6, 5, 5, 7, 2, 1, 1, 1, 28, 9, 6, 5, 5, 18, 6, 4, 3, 3, 14, 4, 3, 2, 2, 20, 7, 5, 4, 3, 8, 3, 2, 1, 1, 31, 10, 7, 6, 5, 13, 4, 3, 2, 2, 11, 3, 2, 2, 2, 45, 15, 11, 9, 8, 67, 23, 16, 13, 12, 1, 1, 1, 1, 1, 6, 2, 1, 1, 1, 11, 3, 2, 2, 1, 43, 15, 10, 8, 7, 109, 37, 26, 22, 19, 89, 31, 22, 18, 16, 60, 21, 14, 12, 10, 9, 3, 2, 1, 1, 124, 43, 30, 25, 22, 7, 2, 1, 1, 1, 2, 1, 1, 1, 1, 78, 26, 19, 15, 14, 6, 2, 1, 1, 1, 30, 10, 7, 6, 5, 1, 1, 1, 1, 1, 33, 11, 8, 6, 6, 55, 19, 13, 11, 9, 8, 2, 2, 1, 1, 12, 4, 3, 2, 2, 12, 4, 2, 2, 2, 35, 12, 8, 7, 6, 7, 2, 1, 1, 1, 4, 1, 1, 1, 1, 15, 5, 3, 3, 2, 9, 3, 2, 1, 1, 47, 16, 11, 9, 8, 7, 2, 1, 1, 1, 18, 6, 4, 3, 3, 73, 25, 18, 15, 13, 26, 8, 6, 5, 4, 52, 18, 12, 10, 9, 72, 25, 17, 14, 13, 35, 12, 8, 7, 6, 31, 10, 7, 6, 5, 89, 30, 21, 18, 16, 134, 46, 32, 27, 24, 15, 5, 3, 3, 2, 1, 1, 1, 1, 1, 8, 3, 2, 1, 1, 4, 1, 1, 1, 1, 13, 4, 3, 2, 2, 3, 1, 1, 1, 1, 23, 8, 5, 4, 4, 12, 4, 3, 2, 2, 58, 20, 14, 11, 10, 88, 30, 21, 18, 16, 20, 7, 5, 4, 3, 8, 2, 2, 1, 1, 23, 8, 5, 4, 4, 58, 20, 14, 11, 10, 13, 4, 3, 2, 2, 20, 7, 5, 4, 3, 8, 2, 2, 1, 1, 15, 5, 3, 3, 2, 13, 4, 3, 2, 2, 7, 2, 1, 1, 1, 18, 6, 4, 3, 3, 9, 3, 2, 1, 1, 12, 4, 2, 2, 2, 19, 6, 4, 3, 3, 35, 12, 8, 7, 6, 10, 3, 2, 2, 1]);
energy      = array3d(JOBS,MACHINES,1..SPEED,[77, 91, 94, 95, 96, 86, 95, 97, 97, 98, 56, 82, 86, 89, 90, 42, 74, 81, 84, 86, 88, 96, 97, 98, 98, 67, 86, 91, 92, 93, 82, 94, 96, 97, 97, 81, 93, 95, 96, 97, 51, 79, 85, 87, 88, 99, 99, 99, 99, 99, 98, 99, 99, 99, 99, 99, 99, 99, 99, 99, 63, 86, 89, 91, 92, 68, 87, 91, 93, 93, 59, 83, 88, 90, 91, 37, 71, 78, 81, 84, 66, 86, 90, 92, 93, 85, 95, 97, 97, 98, 67, 87, 91, 93, 93, 97, 99, 99, 99, 99, 77, 91, 94, 95, 96, 96, 99, 99, 99, 99, 47, 77, 83, 86, 87, 82, 94, 96, 97, 97, 87, 96, 97, 98, 98, 93, 98, 99, 99, 99, 68, 87, 91, 93, 94, 86, 95, 97, 97, 98, 81, 93, 95, 96, 97, 99, 99, 99, 99, 99, 78, 92, 94, 95, 96, 78, 92, 94, 96, 96, 78, 92, 94, 95, 96, 47, 77, 83, 86, 87, 74, 90, 93, 94, 95, 89, 97, 98, 98, 98, 86, 95, 97, 97, 98, 74, 90, 93, 94, 95, 99, 99, 99, 99, 99, 75, 91, 94, 95, 95, 75, 91, 93, 95, 95, 94, 98, 99, 99, 99, 97, 99, 99, 99, 99, 91, 97, 98, 99, 99, 89, 96, 98, 98, 98, 81, 93, 95, 96, 97, 86, 95, 97, 97, 98, 31, 67, 75, 79, 81, 98, 99, 99, 99, 99, 94, 98, 99, 99, 99, 96, 99, 99, 99, 99, 76, 91, 94, 95, 96, 93, 98, 99, 99, 99, 85, 95, 97, 97, 98, 93, 98, 99, 99, 99, 96, 99, 99, 99, 99, 97, 99, 99, 99, 99, 76, 91, 94, 95, 96, 97, 99, 99, 99, 99, 95, 99, 99, 99, 99, 89, 96, 98, 98, 98, 64, 86, 90, 91, 92, 98, 99, 99, 99, 99, 62, 85, 89, 91, 92, 98, 99, 99, 99, 99, 37, 71, 79, 82, 84, 85, 95, 96, 97, 98, 37, 71, 79, 82, 84, 78, 92, 95, 96, 96, 71, 88, 92, 93, 94, 99, 99, 99, 99, 99, 92, 98, 98, 99, 99, 97, 99, 99, 99, 99, 91, 97, 98, 99, 99, 97, 99, 99, 99, 99, 91, 97, 98, 98, 99, 87, 96, 97, 98, 98, 99, 99, 99, 99, 99, 74, 90, 93, 94, 95, 81, 93, 95, 96, 97, 93, 98, 99, 99, 99, 82, 94, 96, 97, 97, 98, 99, 99, 99, 99, 80, 93, 95, 96, 97, 50, 79, 85, 87, 88, 91, 97, 98, 98, 99, 75, 91, 94, 95, 95, 97, 99, 99, 99, 99, 72, 89, 93, 94, 95, 92, 97, 98, 99, 99, 95, 99, 99, 99, 99, 80, 93, 95, 96, 96, 99, 99, 99, 99, 99, 63, 86, 89, 91, 92, 99, 99, 99, 99, 99, 74, 90, 93, 95, 95, 92, 98, 99, 99, 99, 71, 89, 92, 94, 94, 43, 74, 81, 84, 86, 93, 98, 99, 99, 99, 80, 93, 95, 96, 97, 79, 92, 95, 96, 96, 81, 93, 95, 96, 97, 94, 98, 99, 99, 99, 45, 76, 82, 85, 86, 86, 95, 97, 97, 98, 61, 85, 89, 91, 92, 73, 90, 93, 94, 95, 91, 97, 98, 99, 99, 65, 86, 90, 92, 93, 87, 96, 97, 98, 98, 57, 82, 87, 89, 91, 80, 93, 95, 96, 96, 57, 82, 87, 89, 91, 74, 90, 93, 94, 95, 71, 89, 92, 94, 94, 83, 94, 96, 97, 97, 44, 76, 82, 85, 86, 77, 91, 94, 95, 96, 86, 96, 97, 98, 98, 78, 92, 95, 96, 96, 99, 99, 99, 99, 99, 91, 97, 98, 99, 99, 76, 91, 94, 95, 95, 92, 97, 98, 99, 99, 78, 92, 94, 95, 96, 86, 95, 97, 98, 98, 97, 99, 99, 99, 99, 91, 97, 98, 99, 99, 81, 93, 95, 96, 97, 79, 93, 95, 96, 96, 80, 93, 95, 96, 97, 76, 91, 94, 95, 96, 76, 91, 94, 95, 96, 86, 95, 97, 98, 98, 55, 81, 86, 89, 90, 89, 96, 98, 98, 98, 86, 95, 97, 97, 98, 56, 82, 86, 89, 90, 65, 86, 90, 92, 93, 73, 90, 93, 94, 95, 98, 99, 99, 99, 99, 52, 80, 86, 87, 89, 72, 89, 93, 94, 95, 17, 54, 65, 70, 73, 96, 99, 99, 99, 99, 59, 83, 88, 90, 91, 96, 99, 99, 99, 99, 78, 92, 94, 95, 96, 97, 99, 99, 99, 99, 61, 85, 89, 91, 92, 65, 86, 90, 92, 93, 81, 93, 95, 96, 97, 87, 96, 97, 98, 98, 99, 99, 99, 99, 99, 74, 90, 93, 94, 95, 86, 95, 97, 97, 98, 71, 89, 92, 94, 95, 59, 84, 88, 90, 91, 38, 71, 79, 82, 84, 60, 84, 88, 90, 91, 99, 99, 99, 99, 99, 89, 97, 98, 98, 98, 71, 89, 92, 94, 94, 96, 99, 99, 99, 99, 82, 94, 96, 97, 97, 99, 99, 99, 99, 99, 95, 99, 99, 99, 99, 99, 99, 99, 99, 99, 67, 86, 90, 92, 93, 94, 98, 99, 99, 99, 90, 97, 98, 98, 99, 50, 79, 85, 87, 88, 73, 90, 93, 94, 95, 99, 99, 99, 99, 99, 96, 99, 99, 99, 99, 77, 92, 94, 95, 96, 80, 93, 95, 96, 96, 93, 98, 99, 99, 99, 49, 78, 84, 86, 88, 78, 92, 94, 95, 96, 82, 94, 96, 96, 97, 79, 93, 95, 96, 96, 71, 89, 92, 94, 94, 91, 97, 98, 99, 99, 87, 96, 97, 98, 98, 94, 98, 99, 99, 99, 95, 99, 99, 99, 99, 47, 77, 83, 86, 87, 71, 88, 92, 93, 94, 84, 94, 96, 97, 97, 94, 98, 99, 99, 99, 93, 98, 99, 99, 99, 99, 99, 99, 99, 99, 86, 95, 97, 98, 98, 91, 97, 98, 99, 99, 74, 90, 93, 94, 95, 88, 96, 97, 98, 98, 95, 99, 99, 99, 99, 99, 99, 99, 99, 99, 99, 99, 99, 99, 99, 74, 90, 93, 95, 95, 86, 95, 97, 97, 98, 82, 94, 96, 96, 97, 55, 81, 86, 89, 90, 30, 66, 74, 78, 81, 94, 98, 99, 99, 99, 75, 91, 94, 95, 95, 93, 98, 99, 99, 99, 99, 99, 99, 99, 99, 69, 88, 91, 93, 94, 91, 97, 98, 98, 99, 88, 96, 97, 98, 98, 80, 93, 95, 96, 96, 63, 86, 89, 91, 92, 77, 92, 94, 95, 96, 58, 83, 87, 90, 91, 92, 98, 98, 99, 99, 66, 86, 90, 92, 93, 95, 99, 99, 99, 99, 45, 76, 82, 85, 86, 74, 90, 93, 94, 95, 94, 98, 99, 99, 99, 46, 77, 83, 86, 87, 71, 89, 92, 94, 94, 93, 98, 99, 99, 99, 94, 98, 99, 99, 99, 83, 94, 96, 97, 97, 99, 99, 99, 99, 99, 94, 98, 99, 99, 99, 86, 96, 97, 98, 98, 88, 96, 98, 98, 98, 85, 95, 97, 97, 98, 92, 98, 98, 99, 99, 80, 93, 95, 96, 96, 60, 84, 88, 90, 91, 97, 99, 99, 99, 99, 83, 94, 96, 97, 97, 97, 99, 99, 99, 99, 72, 89, 93, 94, 95, 87, 96, 97, 98, 98, 81, 93, 95, 96, 97, 95, 99, 99, 99, 99, 96, 99, 99, 99, 99, 84, 95, 96, 97, 97, 89, 97, 98, 98, 98, 48, 77, 84, 86, 87, 69, 88, 91, 93, 94, 70, 88, 92, 93, 94, 54, 81, 86, 88, 90, 98, 99, 99, 99, 99, 81, 93, 95, 96, 97, 80, 93, 95, 96, 96, 43, 74, 81, 84, 86, 92, 97, 98, 99, 99, 93, 98, 99, 99, 99, 98, 99, 99, 99, 99, 99, 99, 99, 99, 99, 50, 79, 85, 87, 88, 75, 91, 93, 95, 95, 67, 87, 91, 92, 93, 92, 98, 98, 99, 99, 80, 93, 95, 96, 96, 99, 99, 99, 99, 99, 84, 95, 96, 97, 97, 37, 71, 78, 82, 84, 58, 83, 87, 89, 91, 90, 97, 98, 98, 99, 43, 74, 81, 84, 86, 94, 98, 99, 99, 99, 46, 77, 83, 86, 87, 48, 77, 84, 86, 87, 66, 86, 90, 92, 93, 77, 92, 94, 95, 96, 58, 83, 87, 90, 91, 92, 97, 98, 99, 99, 61, 85, 89, 91, 92, 78, 92, 94, 95, 96, 99, 99, 99, 99, 99, 89, 97, 98, 98, 99, 96, 99, 99, 99, 99, 35, 70, 77, 81, 83, 85, 95, 96, 97, 97, 84, 94, 96, 97, 97, 77, 91, 94, 95, 96, 89, 96, 98, 98, 98, 97, 99, 99, 99, 99, 64, 86, 90, 91, 92, 95, 99, 99, 99, 99, 83, 94, 96, 97, 97, 94, 98, 99, 99, 99, 98, 99, 99, 99, 99, 60, 84, 88, 90, 91, 39, 72, 80, 83, 85, 43, 75, 81, 84, 86, 54, 81, 86, 88, 89, 68, 87, 91, 93, 94, 90, 97, 98, 98, 99, 98, 99, 99, 99, 99, 87, 96, 97, 98, 98, 94, 98, 99, 99, 99, 97, 99, 99, 99, 99, 99, 99, 99, 99, 99, 71, 89, 92, 94, 94, 99, 99, 99, 99, 99, 68, 87, 91, 93, 94, 96, 99, 99, 99, 99, 98, 99, 99, 99, 99, 98, 99, 99, 99, 99, 75, 91, 93, 95, 95, 93, 98, 99, 99, 99, 86, 96, 97, 98, 98, 81, 93, 95, 96, 97, 60, 84, 88, 90, 91, 71, 89, 92, 94, 94, 92, 98, 99, 99, 99, 97, 99, 99, 99, 99, 99, 99, 99, 99, 99, 91, 97, 98, 99, 99, 93, 98, 99, 99, 99, 86, 95, 97, 97, 98, 74, 90, 93, 94, 95, 74, 90, 93, 94, 95, 92, 98, 98, 99, 99, 88, 96, 97, 98, 98, 95, 99, 99, 99, 99, 67, 87, 91, 92, 93, 99, 99, 99, 99, 99, 74, 90, 93, 94, 95, 67, 87, 91, 93, 93, 68, 87, 91, 93, 94, 93, 98, 99, 99, 99, 88, 96, 98, 98, 98, 80, 93, 95, 96, 96, 92, 98, 98, 99, 99, 89, 96, 98, 98, 98, 95, 99, 99, 99, 99, 86, 95, 97, 97, 98, 99, 99, 99, 99, 99, 66, 86, 90, 92, 93, 98, 99, 99, 99, 99, 83, 94, 96, 97, 97, 91, 97, 98, 99, 99, 80, 93, 95, 96, 96, 44, 75, 81, 85, 86, 77, 91, 94, 95, 96, 99, 99, 99, 99, 99, 86, 95, 97, 98, 98, 83, 94, 96, 97, 97, 82, 94, 96, 96, 97, 74, 90, 93, 94, 95, 92, 98, 98, 99, 99, 97, 99, 99, 99, 99, 88, 96, 97, 98, 98, 44, 76, 82, 85, 86, 95, 99, 99, 99, 99, 54, 81, 86, 88, 90, 81, 93, 96, 96, 97, 86, 95, 97, 97, 98, 57, 82, 87, 89, 91, 86, 95, 97, 97, 98, 71, 89, 92, 94, 95, 87, 96, 97, 98, 98, 54, 81, 86, 88, 90, 74, 90, 93, 94, 95, 73, 90, 93, 94, 95, 90, 97, 98, 98, 99, 69, 88, 92, 93, 94, 77, 91, 94, 95, 96, 93, 98, 99, 99, 99, 96, 99, 99, 99, 99, 66, 86, 90, 92, 93, 44, 75, 81, 85, 86, 86, 95, 97, 97, 98, 79, 93, 95, 96, 96, 60, 84, 88, 90, 91, 86, 95, 97, 97, 98, 45, 76, 82, 86, 86, 80, 93, 95, 96, 97, 64, 86, 90, 91, 92, 54, 81, 86, 88, 89, 65, 86, 90, 92, 93, 96, 99, 99, 99, 99, 77, 92, 94, 95, 96, 87, 96, 97, 98, 98, 99, 99, 99, 99, 99, 86, 96, 97, 98, 98, 93, 98, 99, 99, 99, 61, 85, 89, 91, 92, 99, 99, 99, 99, 99, 44, 75, 81, 85, 86, 89, 97, 98, 98, 98, 89, 97, 98, 98, 98, 99, 99, 99, 99, 99, 95, 99, 99, 99, 99, 87, 96, 97, 98, 98, 50, 79, 85, 87, 88, 98, 99, 99, 99, 99, 47, 77, 83, 86, 87, 59, 83, 88, 90, 91, 86, 95, 97, 97, 98, 90, 97, 98, 98, 99, 94, 98, 99, 99, 99, 78, 92, 94, 95, 96, 99, 99, 99, 99, 99, 99, 99, 99, 99, 99, 86, 95, 97, 98, 98, 99, 99, 99, 99, 99, 93, 98, 99, 99, 99, 94, 98, 99, 99, 99, 93, 98, 99, 99, 99, 97, 99, 99, 99, 99, 99, 99, 99, 99, 99, 97, 99, 99, 99, 99, 78, 92, 94, 95, 96, 39, 72, 79, 82, 84, 30, 66, 74, 78, 81, 87, 96, 97, 98, 98, 96, 99, 99, 99, 99, 77, 91, 94, 95, 96, 84, 94, 96, 97, 97, 31, 67, 75, 79, 81, 99, 99, 99, 99, 99, 67, 87, 91, 92, 93, 92, 97, 98, 99, 99, 93, 98, 99, 99, 99, 75, 91, 94, 95, 95, 93, 98, 99, 99, 99, 75, 91, 94, 95, 95, 83, 94, 96, 97, 97, 86, 96, 97, 98, 98, 81, 93, 95, 96, 97, 92, 97, 98, 99, 99, 73, 90, 93, 94, 95, 87, 96, 97, 98, 98, 89, 97, 98, 98, 98, 63, 86, 89, 91, 92, 51, 79, 85, 87, 88, 99, 99, 99, 99, 99, 94, 98, 99, 99, 99, 89, 97, 98, 98, 99, 65, 86, 90, 92, 93, 33, 69, 77, 80, 82, 41, 73, 80, 83, 85, 54, 81, 86, 88, 90, 91, 97, 98, 99, 99, 28, 65, 74, 77, 80, 93, 98, 99, 99, 99, 98, 99, 99, 99, 99, 45, 77, 82, 86, 86, 94, 98, 99, 99, 99, 74, 90, 93, 94, 95, 99, 99, 99, 99, 99, 71, 89, 92, 94, 94, 57, 82, 87, 89, 91, 92, 98, 98, 99, 99, 88, 96, 97, 98, 98, 88, 96, 98, 98, 98, 70, 88, 92, 93, 94, 93, 98, 99, 99, 99, 96, 99, 99, 99, 99, 86, 95, 97, 97, 98, 91, 97, 98, 99, 99, 62, 85, 89, 91, 92, 93, 98, 99, 99, 99, 83, 94, 96, 97, 97, 48, 77, 83, 86, 87, 77, 92, 94, 95, 96, 59, 83, 88, 90, 91, 48, 77, 84, 86, 87, 70, 88, 92, 93, 94, 73, 90, 93, 94, 95, 41, 74, 81, 83, 85, 26, 63, 72, 76, 78, 86, 95, 97, 97, 98, 99, 99, 99, 99, 99, 92, 97, 98, 99, 99, 96, 99, 99, 99, 99, 87, 96, 97, 98, 98, 97, 99, 99, 99, 99, 79, 92, 95, 96, 96, 88, 96, 97, 98, 98, 55, 81, 86, 89, 90, 41, 74, 81, 83, 85, 81, 93, 95, 96, 97, 92, 98, 98, 99, 99, 79, 92, 95, 96, 96, 55, 81, 86, 89, 90, 87, 96, 97, 98, 98, 81, 93, 95, 96, 97, 92, 98, 98, 99, 99, 86, 95, 97, 97, 98, 87, 96, 97, 98, 98, 93, 98, 99, 99, 99, 83, 94, 96, 97, 97, 91, 97, 98, 99, 99, 88, 96, 98, 98, 98, 82, 94, 96, 97, 97, 70, 88, 92, 93, 94, 90, 97, 98, 98, 99]);
precedence  = array2d(JOBS,MACHINES,[3, 4, 1, 2, 0, 4, 1, 2, 3, 0, 3, 2, 0, 4, 1, 0, 3, 1, 2, 4, 0, 1, 3, 2, 4, 3, 0, 2, 4, 1, 2, 3, 1, 0, 4, 2, 4, 1, 0, 3, 1, 4, 2, 3, 0, 4, 2, 3, 0, 1, 4, 3, 1, 0, 2, 2, 3, 0, 4, 1, 3, 4, 1, 0, 2, 0, 3, 1, 4, 2, 1, 0, 4, 3, 2, 0, 2, 3, 4, 1, 3, 1, 0, 2, 4, 1, 3, 0, 4, 2, 2, 3, 4, 0, 1, 2, 1, 3, 4, 0, 1, 2, 3, 4, 0, 4, 3, 2, 1, 0, 1, 2, 0, 4, 3, 4, 3, 2, 0, 1, 3, 2, 0, 4, 1, 2, 3, 0, 4, 1, 0, 3, 1, 2, 4, 4, 0, 3, 1, 2, 2, 1, 4, 3, 0, 0, 3, 2, 4, 1, 2, 3, 1, 0, 4, 0, 4, 1, 3, 2, 0, 4, 2, 3, 1, 1, 0, 2, 3, 4, 3, 1, 0, 2, 4, 3, 0, 4, 1, 2, 3, 1, 0, 4, 2, 1, 0, 2, 3, 4, 4, 3, 1, 2, 0, 0, 2, 4, 1, 3, 1, 4, 2, 3, 0, 3, 2, 0, 4, 1, 1, 4, 0, 2, 3, 0, 2, 4, 1, 3, 1, 2, 0, 3, 4, 2, 0, 3, 4, 1, 3, 0, 1, 2, 4, 3, 0, 4, 2, 1, 0, 3, 2, 4, 1, 2, 4, 3, 1, 0, 0, 3, 1, 4, 2, 3, 1, 2, 4, 0, 4, 0, 1, 2, 3, 2, 0, 1, 4, 3, 0, 4, 3, 2, 1, 3, 4, 0, 2, 1, 4, 1, 3, 2, 0, 3, 2, 0, 1, 4, 3, 0, 2, 1, 4, 4, 3, 0, 1, 2, 0, 3, 4, 2, 1, 4, 2, 1, 0, 3, 4, 1, 0, 2, 3, 2, 3, 1, 4, 0, 1, 3, 0, 2, 4, 2, 1, 0, 3, 4, 0, 1, 4, 3, 2, 4, 0, 1, 2, 3, 1, 2, 3, 0, 4, 1, 3, 4, 2, 0, 1, 3, 0, 4, 2, 4, 3, 1, 2, 0, 2, 3, 4, 0, 1, 4, 0, 3, 2, 1, 0, 4, 1, 3, 2, 3, 1, 2, 0, 4, 4, 0, 3, 1, 2, 0, 4, 2, 3, 1, 2, 0, 3, 1, 4, 0, 4, 2, 1, 3, 0, 4, 2, 3, 1, 0, 2, 4, 3, 1, 0, 4, 1, 2, 3, 4, 3, 1, 2, 0, 2, 0, 3, 4, 1, 0, 3, 2, 1, 4, 1, 3, 0, 4, 2, 3, 4, 1, 0, 2, 4, 1, 3, 2, 0, 4, 3, 2, 0, 1, 2, 0, 3, 4, 1, 1, 3, 2, 4, 0, 0, 4, 1, 2, 3, 3, 4, 2, 1, 0, 2, 0, 4, 3, 1, 0, 1, 2, 4, 3, 2, 1, 0, 3, 4, 1, 3, 4, 0, 2, 1, 4, 2, 3, 0, 1, 4, 2, 3, 0]);
releaseDate = array2d(JOBS,MACHINES,[104, 112, 64, 79, 60, 51, 1, 9, 17, 0, 129, 128, 100, 130, 111, 30, 72, 56, 62, 84, 60, 73, 79, 74, 105, 57, 30, 44, 58, 43, 137, 146, 127, 90, 153, 73, 84, 61, 60, 78, 32, 47, 42, 44, 30, 67, 23, 26, 20, 22, 32, 25, 23, 20, 24, 27, 28, 20, 29, 26, 75, 78, 73, 60, 74, 40, 109, 67, 115, 94, 62, 60, 67, 64, 63, 0, 8, 12, 13, 2, 50, 41, 40, 45, 51, 91, 95, 90, 102, 93, 44, 45, 51, 20, 43, 12, 11, 19, 35, 10, 87, 93, 100, 105, 60, 51, 38, 25, 23, 10, 75, 79, 70, 106, 92, 110, 105, 61, 50, 57, 65, 64, 60, 74, 62, 21, 28, 10, 34, 11, 100, 126, 106, 116, 134, 95, 60, 90, 63, 78, 110, 109, 125, 118, 60, 60, 65, 63, 79, 61, 74, 91, 63, 60, 107, 20, 92, 34, 75, 47, 50, 79, 64, 66, 63, 21, 20, 25, 26, 27, 56, 43, 20, 45, 57, 59, 30, 60, 37, 38, 35, 27, 20, 42, 32, 91, 90, 94, 96, 130, 39, 38, 36, 37, 30, 80, 85, 101, 84, 100, 75, 90, 76, 79, 50, 49, 48, 40, 94, 47, 53, 81, 50, 63, 69, 10, 31, 59, 20, 58, 51, 82, 50, 98, 125, 82, 80, 83, 87, 81, 28, 20, 22, 26, 31, 104, 90, 122, 103, 92, 90, 101, 99, 118, 95, 75, 104, 78, 66, 50, 60, 71, 61, 85, 69, 52, 50, 51, 53, 40, 15, 0, 3, 8, 10, 100, 80, 95, 132, 131, 100, 174, 164, 156, 133, 62, 64, 50, 61, 59, 114, 56, 110, 104, 50, 68, 66, 50, 64, 70, 46, 10, 33, 11, 48, 18, 6, 0, 2, 3, 0, 11, 12, 2, 1, 11, 2, 1, 0, 3, 30, 5, 0, 8, 20, 102, 103, 101, 104, 100, 8, 13, 0, 11, 21, 112, 101, 100, 113, 120, 70, 79, 94, 85, 80, 75, 60, 61, 64, 65, 35, 36, 41, 30, 43, 56, 74, 75, 69, 50, 41, 71, 40, 76, 52, 112, 69, 60, 64, 30, 67, 70, 80, 40, 58, 76, 50, 59, 53, 52, 100, 131, 101, 128, 123, 46, 18, 22, 10, 59, 54, 30, 52, 42, 49, 60, 76, 62, 63, 61, 74, 70, 120, 73, 123, 40, 90, 64, 45, 65, 0, 13, 4, 6, 3, 0, 2, 10, 9, 1, 70, 79, 71, 72, 73, 143, 114, 109, 113, 100, 60, 30, 64, 66, 58, 30, 41, 40, 31, 50, 2, 10, 0, 15, 6, 18, 20, 1, 0, 17, 191, 104, 146, 124, 90, 102, 71, 70, 40, 41, 72, 40, 73, 74, 58, 51, 57, 55, 66, 50, 80, 98, 82, 85, 97, 176, 182, 163, 145, 80, 19, 0, 63, 27, 15, 10, 11, 13, 15, 14, 67, 64, 50, 78, 103, 95, 102, 111, 90, 97, 94, 102, 96, 101, 90, 64, 81, 67, 73, 60]);
dueDate     = array2d(JOBS,MACHINES,[112, 115, 79, 104, 64, 65, 9, 17, 51, 1, 130, 129, 111, 154, 128, 56, 84, 62, 72, 85, 73, 74, 105, 79, 108, 58, 43, 57, 66, 44, 146, 153, 137, 127, 160, 78, 87, 73, 61, 84, 42, 48, 44, 47, 32, 73, 26, 67, 22, 23, 34, 32, 24, 23, 25, 28, 29, 26, 30, 27, 78, 92, 74, 73, 75, 67, 115, 94, 120, 109, 63, 62, 68, 67, 64, 2, 12, 13, 20, 8, 51, 45, 41, 50, 67, 93, 102, 91, 109, 95, 45, 51, 52, 43, 44, 19, 12, 35, 66, 11, 93, 100, 105, 106, 87, 54, 51, 38, 25, 23, 79, 92, 75, 127, 106, 119, 110, 105, 57, 61, 74, 65, 62, 81, 64, 28, 34, 11, 36, 21, 106, 134, 116, 126, 137, 120, 63, 95, 78, 90, 118, 110, 146, 125, 109, 61, 79, 65, 85, 63, 91, 107, 74, 63, 108, 34, 95, 47, 92, 75, 63, 80, 66, 79, 64, 25, 21, 26, 27, 41, 57, 45, 43, 56, 58, 60, 37, 65, 38, 59, 42, 32, 27, 64, 35, 94, 91, 96, 130, 140, 49, 39, 37, 38, 36, 84, 100, 105, 85, 101, 76, 97, 79, 90, 75, 94, 49, 47, 96, 48, 63, 83, 53, 69, 81, 20, 58, 61, 31, 59, 82, 98, 51, 125, 138, 83, 81, 87, 88, 82, 31, 22, 26, 28, 38, 122, 92, 126, 104, 103, 95, 118, 101, 119, 99, 78, 126, 104, 75, 66, 61, 85, 69, 127, 71, 53, 51, 52, 70, 50, 24, 3, 8, 10, 15, 131, 95, 100, 167, 132, 133, 192, 174, 164, 156, 64, 77, 59, 62, 61, 115, 104, 114, 110, 56, 70, 68, 64, 66, 79, 48, 11, 46, 33, 76, 35, 18, 2, 3, 6, 1, 12, 14, 11, 2, 20, 3, 2, 1, 11, 31, 8, 5, 20, 30, 103, 104, 102, 107, 101, 11, 21, 8, 13, 26, 113, 112, 101, 120, 134, 79, 80, 96, 94, 85, 77, 61, 64, 65, 75, 36, 41, 43, 35, 124, 69, 75, 78, 74, 56, 52, 76, 41, 80, 71, 113, 112, 64, 69, 60, 70, 80, 83, 58, 67, 88, 52, 76, 59, 53, 101, 149, 123, 131, 128, 59, 22, 46, 18, 80, 80, 42, 54, 49, 52, 61, 80, 63, 76, 62, 120, 73, 123, 74, 126, 45, 106, 65, 64, 90, 3, 15, 6, 13, 4, 1, 9, 11, 10, 2, 71, 80, 72, 73, 79, 177, 143, 113, 114, 109, 64, 58, 66, 84, 60, 31, 50, 41, 40, 54, 6, 15, 2, 22, 10, 20, 54, 17, 1, 18, 193, 124, 191, 146, 104, 104, 102, 71, 41, 70, 73, 58, 74, 85, 72, 55, 66, 57, 79, 51, 82, 101, 85, 97, 98, 182, 202, 176, 163, 145, 27, 15, 86, 63, 19, 11, 13, 14, 18, 15, 78, 67, 64, 103, 109, 97, 111, 132, 95, 102, 96, 109, 101, 102, 94, 67, 83, 73, 81, 64]);